0 0 0 0
0 1 0 0
0 2 0 0
0 3 0 0
0 4 0 3
0 5 0 2
0 6 0 4
0 7 1 9
0 8 0 2
0 9 0 2
0 10 1 4
0 11 0 4
0 12 1 3
0 13 2 6
0 14 0 13
0 15 1 4
0 16 0 9
0 17 0 6
0 18 0 9
0 19 0 13
0 20 1 6
0 21 1 9
0 22 0 12
0 23 1 13
0 24 0 14
0 25 0 17
0 26 2 13
0 27 0 24
0 28 2 20
0 29 0 26
0 30 2 20
0 31 0 28
